TYPE : Vertex Cover
DIMENSION: 21
EDGE_DATA_SECTION:
0 2
0 10
1 7
1 9
1 12
1 17
2 5
2 10
2 16
2 18
2 20
3 6
3 9
3 14
3 18
4 6
4 9
4 10
4 13
4 14
4 15
5 7
5 13
5 14
6 7
6 12
6 13
6 15
6 20
7 8
7 9
7 14
8 9
8 10
8 14
8 16
8 17
9 13
9 17
9 20
11 12
11 17
11 19
12 13
13 16
13 17
13 18
13 19
15 18
15 19
16 19
17 18
-1
VERTEX_DEGREE:
2.0 4.0 6.0 4.0 6.0 4.0 7.0 6.0 6.0 8.0 4.0 3.0 4.0 9.0 5.0 4.0 4.0 6.0 5.0 4.0 3.0
VERTEX_COVER:
2 6 7 9 10 12 13 14 15 16 17 18 19
EOF
